benchmarks/bfuzz0/229972449619148864230483127841710727204.smt2
(set-logic QF_FP)
(declare-const x0 (_ FloatingPoint 11 53))
(declare-const x1 (_ FloatingPoint 11 53))
(declare-const x2 (_ FloatingPoint 11 53))
(declare-const x3 (_ FloatingPoint 11 53))
(declare-const x4 (_ FloatingPoint 11 53))
(declare-const x5 (_ FloatingPoint 11 53))
(declare-const x6 (_ FloatingPoint 11 53))
(declare-const x7 (_ FloatingPoint 11 53))
(declare-const x8 (_ FloatingPoint 11 53))
(declare-const x9 (_ FloatingPoint 11 53))
(declare-const x10 (_ FloatingPoint 11 53))
(declare-const x11 (_ FloatingPoint 11 53))
(declare-const x12 (_ FloatingPoint 11 53))
(declare-const x13 (_ FloatingPoint 11 53))
(declare-const x14 (_ FloatingPoint 11 53))
(declare-const x15 (_ FloatingPoint 11 53))
(assert (fp.geq (fp.mul RNE (fp.sub RNE x0 x1) (fp.add RNE x2 x6)) (fp.add RNE (fp.add RNE x11 x6) (fp.neg x2))))
(assert (fp.leq (fp.div RNE (fp.add RNE x11 x0) (fp.sub RNE x4 x12)) (fp.div RNE (fp.add RNE x1 x13) (fp.div RNE x10 x3))))
(check-sat)
