db/data/229972449619148864230483127841710727204.z3.out
-------------------
2500.105090730
